decision_x1=[0,4];
decision_x2=[0,4];
decision_x3=[0,4];
decision_x4=[0,4];
decision_x5=[0,4];
decision_x6=[0,4];
decision_x7=[0,4];
decision_x8=[0,4];
decision_x9=[0,4];
decision_x10=[0,4];
decision_x11=[0,4];
decision_x12=[0,4];
random_y1=[0,4];
random_y2=[0,4];
random_y3=[0,4];
random_y4=[0,4];
random_y5=[0,4];
random_y6=[0,4];
constraint_x3_x1=[
0,1,4.1|
0,2,1|
0,3,2.3|
0,4,8.9|
1,0,9.3|
1,2,7|
1,3,2.9|
1,4,2.9|
2,0,7.9|
2,1,5.9|
2,3,4.3|
2,4,4.1|
3,0,2|
3,1,5.6|
3,2,9.3|
3,4,1.8|
4,0,3.8|
4,1,7.9|
4,2,1.8|
4,3,6.3|
];
constraint_x4_x3=[
0,1,6.7|
0,2,1.6|
0,3,8.8|
0,4,0.29|
1,0,2.4|
1,2,6.8|
1,3,4.1|
1,4,3|
2,0,9.3|
2,1,7|
2,3,5.1|
2,4,4.1|
3,0,7.6|
3,1,1.1|
3,2,1.1|
3,4,8.8|
4,0,6.7|
4,1,9|
4,2,6.7|
4,3,7.2|
];
constraint_x6_x1=[
0,1,5.1|
0,2,6.1|
0,3,6.6|
0,4,0.95|
1,0,4.4|
1,2,2.6|
1,3,4.7|
1,4,2.3|
2,0,6.8|
2,1,1.9|
2,3,1|
2,4,9.2|
3,0,7.6|
3,1,7.2|
3,2,0.79|
3,4,5|
4,0,2.8|
4,1,6.7|
4,2,1.5|
4,3,2.9|
];
constraint_x6_x3=[
0,1,1.2|
0,2,8.1|
0,3,5.6|
0,4,9.4|
1,0,0.15|
1,2,5.4|
1,3,8.7|
1,4,7.8|
2,0,1.5|
2,1,6|
2,3,0.64|
2,4,3.6|
3,0,8.8|
3,1,6.6|
3,2,1.4|
3,4,5.5|
4,0,1.3|
4,1,1.8|
4,2,9.4|
4,3,0.98|
];
constraint_x6_x4=[
0,1,4.3|
0,2,9.7|
0,3,8|
0,4,1.7|
1,0,7.6|
1,2,9.8|
1,3,8.5|
1,4,2.8|
2,0,8.4|
2,1,6|
2,3,4.2|
2,4,0.54|
3,0,3.6|
3,1,4.5|
3,2,5.5|
3,4,7.5|
4,0,2|
4,1,3.7|
4,2,3.9|
4,3,9.9|
];
constraint_x6_x5=[
0,1,8|
0,2,8.7|
0,3,1.8|
0,4,0.27|
1,0,9.1|
1,2,9.7|
1,3,3.7|
1,4,9.1|
2,0,1.3|
2,1,6.7|
2,3,3.5|
2,4,9.9|
3,0,5.4|
3,1,8|
3,2,1.3|
3,4,7.5|
4,0,2.6|
4,1,2.8|
4,2,2.6|
4,3,4|
];
constraint_x7_x2=[
0,1,1.1|
0,2,1.3|
0,3,8.3|
0,4,4|
1,0,4.4|
1,2,9.3|
1,3,2.2|
1,4,6.6|
2,0,9.6|
2,1,6|
2,3,4.7|
2,4,1.3|
3,0,7|
3,1,6|
3,2,9.4|
3,4,7.4|
4,0,7.6|
4,1,6.6|
4,2,8|
4,3,6.3|
];
constraint_x7_x4=[
0,1,4.5|
0,2,1.6|
0,3,2.4|
0,4,9.6|
1,0,9.1|
1,2,6.9|
1,3,0.6|
1,4,6.9|
2,0,4.1|
2,1,7.1|
2,3,8.9|
2,4,7.5|
3,0,7.6|
3,1,0.26|
3,2,0.69|
3,4,1.5|
4,0,6.5|
4,1,2.9|
4,2,2|
4,3,7.5|
];
constraint_x8_x2=[
0,1,5.7|
0,2,0.3|
0,3,3.9|
0,4,1.7|
1,0,8.1|
1,2,0.91|
1,3,0.072|
1,4,0.96|
2,0,3|
2,1,8|
2,3,0.65|
2,4,5.5|
3,0,8.3|
3,1,2.7|
3,2,9.2|
3,4,7.3|
4,0,5.2|
4,1,3.1|
4,2,5.4|
4,3,5.5|
];
constraint_x8_x3=[
0,1,7|
0,2,5.3|
0,3,6.2|
0,4,2.7|
1,0,9.6|
1,2,5.8|
1,3,7.1|
1,4,4.4|
2,0,2.9|
2,1,9|
2,3,9.8|
2,4,4.2|
3,0,1.7|
3,1,5.9|
3,2,8.2|
3,4,7.4|
4,0,2|
4,1,9.4|
4,2,1.2|
4,3,4.9|
];
constraint_x8_x4=[
0,1,0.99|
0,2,8|
0,3,1.7|
0,4,4.3|
1,0,3.9|
1,2,6.7|
1,3,2.9|
1,4,4.9|
2,0,7.7|
2,1,7.4|
2,3,9.8|
2,4,5.4|
3,0,8.2|
3,1,4.3|
3,2,1.6|
3,4,4.9|
4,0,6.6|
4,1,1.1|
4,2,5.1|
4,3,8.2|
];
constraint_x8_x5=[
0,1,2.1|
0,2,7.5|
0,3,9.1|
0,4,3.5|
1,0,5.1|
1,2,1.3|
1,3,7.3|
1,4,7.7|
2,0,2.9|
2,1,8.7|
2,3,7.9|
2,4,9.4|
3,0,8.1|
3,1,5.1|
3,2,7.6|
3,4,3.6|
4,0,5.9|
4,1,5.5|
4,2,2.4|
4,3,0.78|
];
constraint_x8_x6=[
0,1,7.9|
0,2,4.4|
0,3,3.6|
0,4,2.2|
1,0,3.5|
1,2,9.4|
1,3,0.36|
1,4,5|
2,0,9.9|
2,1,3.6|
2,3,3.7|
2,4,4.6|
3,0,0.29|
3,1,5.2|
3,2,2.2|
3,4,8.1|
4,0,2.2|
4,1,5.6|
4,2,0.57|
4,3,5|
];
constraint_x9_x2=[
0,1,10|
0,2,0.99|
0,3,2.9|
0,4,8.6|
1,0,3.4|
1,2,9.2|
1,3,9.2|
1,4,5.1|
2,0,2.3|
2,1,6|
2,3,7.9|
2,4,8|
3,0,7.2|
3,1,6.1|
3,2,7.4|
3,4,1.9|
4,0,3.6|
4,1,9.7|
4,2,4|
4,3,3.4|
];
constraint_x9_x4=[
0,1,9.5|
0,2,2.4|
0,3,4.6|
0,4,1.9|
1,0,3.8|
1,2,9.1|
1,3,6.6|
1,4,9.5|
2,0,2.5|
2,1,4.9|
2,3,8.8|
2,4,9.9|
3,0,4.6|
3,1,3|
3,2,1.5|
3,4,6.9|
4,0,6.9|
4,1,9.2|
4,2,1.7|
4,3,9.8|
];
constraint_x9_x6=[
0,1,8.6|
0,2,6.3|
0,3,5.2|
0,4,1.5|
1,0,7.8|
1,2,2.3|
1,3,6.9|
1,4,3.8|
2,0,2.6|
2,1,4.4|
2,3,6.5|
2,4,5|
3,0,5.6|
3,1,5.9|
3,2,2.4|
3,4,6.1|
4,0,8.2|
4,1,6.5|
4,2,0.19|
4,3,2.7|
];
constraint_x9_x7=[
0,1,5.4|
0,2,8.5|
0,3,8.6|
0,4,1.1|
1,0,1.9|
1,2,3.9|
1,3,3.3|
1,4,1.1|
2,0,2|
2,1,4.9|
2,3,4.8|
2,4,8.4|
3,0,3.3|
3,1,8|
3,2,6.7|
3,4,7.5|
4,0,2.4|
4,1,2.8|
4,2,2.9|
4,3,5.3|
];
constraint_x10_x1=[
0,1,1.3|
0,2,0.46|
0,3,0.53|
0,4,6.7|
1,0,8.1|
1,2,4|
1,3,4.6|
1,4,1.3|
2,0,6.2|
2,1,3.7|
2,3,10|
2,4,8.6|
3,0,6.1|
3,1,6.2|
3,2,0.066|
3,4,4.2|
4,0,2.1|
4,1,6.4|
4,2,8.8|
4,3,2.9|
];
constraint_x10_x2=[
0,1,4.7|
0,2,3|
0,3,5.3|
0,4,4.5|
1,0,3.8|
1,2,6.8|
1,3,6.3|
1,4,2.8|
2,0,1.8|
2,1,1.7|
2,3,3.9|
2,4,0.95|
3,0,9.3|
3,1,4.9|
3,2,5.4|
3,4,5.4|
4,0,7.8|
4,1,6.7|
4,2,9.9|
4,3,8.7|
];
constraint_x10_x3=[
0,1,4.5|
0,2,7|
0,3,4.8|
0,4,1.3|
1,0,1.1|
1,2,9.7|
1,3,3.8|
1,4,2.7|
2,0,9.2|
2,1,8.1|
2,3,5.2|
2,4,1.8|
3,0,5.2|
3,1,4.7|
3,2,7.5|
3,4,4|
4,0,4.7|
4,1,1.6|
4,2,4.1|
4,3,7.1|
];
constraint_x10_x8=[
0,1,2.1|
0,2,7.5|
0,3,9.7|
0,4,0.82|
1,0,9.2|
1,2,4|
1,3,8.5|
1,4,5.4|
2,0,1.4|
2,1,1.7|
2,3,7.2|
2,4,1.6|
3,0,0.71|
3,1,1.7|
3,2,5.4|
3,4,7.2|
4,0,1.4|
4,1,9|
4,2,0.078|
4,3,2.3|
];
constraint_x11_x1=[
0,1,4.6|
0,2,0.69|
0,3,9.6|
0,4,4.7|
1,0,2.3|
1,2,4.9|
1,3,5.8|
1,4,4.2|
2,0,3.3|
2,1,9.4|
2,3,1.2|
2,4,1.1|
3,0,4.2|
3,1,9.9|
3,2,3.7|
3,4,5.9|
4,0,9.1|
4,1,7.8|
4,2,1.7|
4,3,5.8|
];
constraint_x11_x3=[
0,1,4.1|
0,2,4.3|
0,3,4.6|
0,4,1.2|
1,0,2|
1,2,6.9|
1,3,5.1|
1,4,9.2|
2,0,4.6|
2,1,8.4|
2,3,8.7|
2,4,2|
3,0,6.9|
3,1,5.2|
3,2,8.9|
3,4,0.15|
4,0,5.4|
4,1,3.5|
4,2,5.4|
4,3,9|
];
constraint_x11_x4=[
0,1,4.9|
0,2,7.4|
0,3,8.4|
0,4,4|
1,0,7.8|
1,2,6.1|
1,3,3.2|
1,4,7|
2,0,5.8|
2,1,7.8|
2,3,7.8|
2,4,4.6|
3,0,2.4|
3,1,3.2|
3,2,6.7|
3,4,4.2|
4,0,4.9|
4,1,6|
4,2,3|
4,3,1.8|
];
constraint_x11_x5=[
0,1,7.3|
0,2,8.4|
0,3,6.4|
0,4,8.5|
1,0,7.5|
1,2,5|
1,3,1.6|
1,4,8.1|
2,0,9.9|
2,1,2.4|
2,3,4|
2,4,4.5|
3,0,4.4|
3,1,5.4|
3,2,4.1|
3,4,6.7|
4,0,4.9|
4,1,8.2|
4,2,0.96|
4,3,7.6|
];
constraint_x11_x6=[
0,1,6.4|
0,2,1.9|
0,3,8.8|
0,4,4.7|
1,0,7.6|
1,2,7.1|
1,3,0.66|
1,4,3.7|
2,0,9.6|
2,1,9.6|
2,3,1.5|
2,4,7.2|
3,0,9|
3,1,2.7|
3,2,6.5|
3,4,1.2|
4,0,2.5|
4,1,2.1|
4,2,1.9|
4,3,5.3|
];
constraint_x11_x9=[
0,1,1.1|
0,2,2.5|
0,3,2|
0,4,4.9|
1,0,1.1|
1,2,1.8|
1,3,2.9|
1,4,1.6|
2,0,2.7|
2,1,1.4|
2,3,7|
2,4,4.9|
3,0,1.3|
3,1,8.1|
3,2,7.4|
3,4,4.2|
4,0,10|
4,1,6.1|
4,2,1.6|
4,3,1.9|
];
constraint_x11_x10=[
0,1,4|
0,2,9.3|
0,3,3.7|
0,4,2.4|
1,0,5|
1,2,9.3|
1,3,9.7|
1,4,5.2|
2,0,5.9|
2,1,8.7|
2,3,4.8|
2,4,7.7|
3,0,2.5|
3,1,7.3|
3,2,7.7|
3,4,8.2|
4,0,8.4|
4,1,6.3|
4,2,3.7|
4,3,8.4|
];
constraint_x12_x4=[
0,1,1.2|
0,2,9.1|
0,3,5.2|
0,4,6.4|
1,0,6.7|
1,2,3|
1,3,2.7|
1,4,0.56|
2,0,6.6|
2,1,1.5|
2,3,1.1|
2,4,9.4|
3,0,6|
3,1,4|
3,2,2.1|
3,4,6.3|
4,0,5.9|
4,1,3.5|
4,2,4.2|
4,3,0.76|
];
constraint_x12_x5=[
0,1,5.4|
0,2,7.2|
0,3,8.5|
0,4,9.9|
1,0,5.5|
1,2,4.6|
1,3,0.5|
1,4,4.9|
2,0,9.9|
2,1,3.5|
2,3,8|
2,4,6.4|
3,0,9.7|
3,1,6.9|
3,2,4.9|
3,4,4.4|
4,0,8.6|
4,1,8.6|
4,2,9.3|
4,3,4.7|
];
constraint_x12_x7=[
0,1,6.3|
0,2,5.8|
0,3,1.6|
0,4,4.6|
1,0,9.9|
1,2,4.5|
1,3,9|
1,4,2.6|
2,0,3|
2,1,1.8|
2,3,0.69|
2,4,8.8|
3,0,3.1|
3,1,9.3|
3,2,5.8|
3,4,1.4|
4,0,2.6|
4,1,6.5|
4,2,4.2|
4,3,5.5|
];
constraint_x12_x10=[
0,1,3.8|
0,2,0.48|
0,3,2.9|
0,4,4.5|
1,0,9.9|
1,2,9.3|
1,3,3.9|
1,4,5.7|
2,0,8.7|
2,1,5.1|
2,3,2.7|
2,4,1.9|
3,0,9.4|
3,1,1.7|
3,2,7.2|
3,4,9.9|
4,0,3.2|
4,1,7.6|
4,2,0.66|
4,3,9.3|
];
constraint_x12_x11=[
0,1,6.4|
0,2,9.5|
0,3,2|
0,4,3.1|
1,0,7|
1,2,8.8|
1,3,2.9|
1,4,2.7|
2,0,5.5|
2,1,4.1|
2,3,0.3|
2,4,4.8|
3,0,0.59|
3,1,0.33|
3,2,7|
3,4,7.4|
4,0,7.8|
4,1,8.6|
4,2,6.2|
4,3,2.6|
];
constraint_x1_y1=[
0,0,1|
0,1,7.8|
0,2,3.5|
0,3,3.8|
0,4,3.8|
1,0,0.72|
1,1,2.8|
1,2,6.4|
1,3,8.8|
1,4,0.5|
2,0,1.4|
2,1,0.69|
2,2,6.3|
2,3,7|
2,4,2.2|
3,0,8.5|
3,1,0.17|
3,2,4.2|
3,3,2.1|
3,4,5.9|
4,0,5.6|
4,1,2.7|
4,2,1.2|
4,3,1.8|
4,4,7.9|
];
constraint_x2_y2=[
0,0,8.5|
0,1,9.7|
0,2,8.4|
0,3,9.2|
0,4,6.4|
1,0,8.9|
1,1,3.9|
1,2,8.8|
1,3,7.4|
1,4,7.4|
2,0,0.69|
2,1,8.2|
2,2,6.3|
2,3,0.93|
2,4,6.8|
3,0,2.3|
3,1,8.1|
3,2,2.7|
3,3,7|
3,4,8.6|
4,0,4.8|
4,1,0.63|
4,2,8.5|
4,3,0.61|
4,4,4.3|
];
constraint_x3_y3=[
0,0,9.1|
0,1,1.7|
0,2,3.4|
0,3,8.2|
0,4,3.6|
1,0,6.4|
1,1,5.8|
1,2,0.13|
1,3,3.6|
1,4,8.5|
2,0,6.1|
2,1,6.2|
2,2,4|
2,3,2.4|
2,4,2.4|
3,0,5.2|
3,1,6.7|
3,2,1.3|
3,3,4.9|
3,4,9.5|
4,0,1.7|
4,1,3.7|
4,2,4.1|
4,3,4.5|
4,4,4.7|
];
constraint_x4_y4=[
0,0,8.5|
0,1,5.2|
0,2,9.9|
0,3,8.6|
0,4,2.6|
1,0,5.5|
1,1,7|
1,2,1.9|
1,3,1.3|
1,4,4.9|
2,0,2.7|
2,1,1.4|
2,2,7.8|
2,3,0.83|
2,4,4.8|
3,0,8.8|
3,1,0.63|
3,2,2.2|
3,3,0.87|
3,4,9.7|
4,0,9.5|
4,1,8|
4,2,1.8|
4,3,8.1|
4,4,0.33|
];
constraint_x5_y5=[
0,0,3.9|
0,1,4.4|
0,2,10|
0,3,9.4|
0,4,8.3|
1,0,0.073|
1,1,0.86|
1,2,6.4|
1,3,8.1|
1,4,8.9|
2,0,5|
2,1,3.4|
2,2,2.8|
2,3,8.7|
2,4,3.6|
3,0,7.1|
3,1,7.2|
3,2,0.49|
3,3,2.8|
3,4,9.4|
4,0,1.8|
4,1,7|
4,2,4.5|
4,3,8|
4,4,3.6|
];
constraint_x6_y6=[
0,0,9.2|
0,1,8|
0,2,0.16|
0,3,9.7|
0,4,9.3|
1,0,4.4|
1,1,4.5|
1,2,2|
1,3,7.8|
1,4,0.039|
2,0,3.7|
2,1,1.8|
2,2,5.5|
2,3,2.4|
2,4,6.8|
3,0,1.1|
3,1,4.6|
3,2,2.6|
3,3,2|
3,4,6|
4,0,0.51|
4,1,1.6|
4,2,6.4|
4,3,7.8|
4,4,9.3|
];
initial_distribution_y1=[0.2,0.16,0.072,0.38,0.19];
initial_distribution_y2=[0.15,0.45,0.15,0.12,0.13];
initial_distribution_y3=[0.0074,0.2,0.29,0.075,0.43];
initial_distribution_y4=[0.27,0.048,0.25,0.27,0.16];
initial_distribution_y5=[0.28,0.13,0.04,0.45,0.11];
initial_distribution_y6=[0.14,0.11,0.26,0.46,0.032];
transition_y1=[
0.29,0.15,0.25,0.28,0.024|
0.17,0.32,0.2,0.12,0.19|
0.15,0.22,0.29,0.047,0.29|
0.15,0.097,0.36,0.095,0.29|
0.26,0.2,0.23,0.23,0.084|
];
transition_y2=[
0.2,0.23,0.23,0.27,0.065|
0.14,0.46,0.16,0.14,0.11|
0.16,0.28,0.11,0.21,0.24|
0.28,0.13,0.16,0.24,0.19|
0.14,0.11,0.27,0.28,0.2|
];
transition_y3=[
0.34,0.12,0.15,0.015,0.37|
0.28,0.074,0.053,0.15,0.44|
0.53,0.34,0.051,0.054,0.026|
0.34,0.16,0.33,0.15,0.023|
0.15,0.16,0.28,0.11,0.29|
];
transition_y4=[
0.0075,0.15,0.37,0.17,0.3|
0.2,0.21,0.2,0.25,0.14|
0.27,0.064,0.057,0.36,0.25|
0.092,0.13,0.19,0.27,0.31|
0.27,0.21,0.32,0.063,0.14|
];
transition_y5=[
0.22,0.35,0.25,0.049,0.13|
0.14,0.15,0.27,0.2,0.25|
0.32,0.24,0.1,0.21,0.13|
0.27,0.25,0.26,0.12,0.11|
0.35,0.1,0.17,0.07,0.31|
];
transition_y6=[
0.21,0.24,0.051,0.25,0.25|
0.078,0.28,0.15,0.15,0.34|
0.35,0.082,0.22,0.33,0.018|
0.16,0.14,0.36,0.14,0.2|
0.24,0.17,0.29,0.031,0.28|
];
